
Gurobi 12.0.1 (mac64[arm], Python) logging started Wed Oct  8 14:56:55 2025


Gurobi 12.0.1 (mac64[arm], Python) logging started Wed Oct  8 15:28:39 2025


Gurobi 12.0.1 (mac64[arm], Python) logging started Wed Oct  8 15:29:43 2025


Gurobi 12.0.1 (mac64[arm], Python) logging started Wed Oct  8 15:29:59 2025


Gurobi 12.0.1 (mac64[arm], Python) logging started Wed Oct  8 15:30:55 2025


Gurobi 12.0.1 (mac64[arm], Python) logging started Wed Oct  8 15:31:28 2025


Gurobi 12.0.1 (mac64[arm], Python) logging started Wed Oct  8 15:32:41 2025


Gurobi 12.0.1 (mac64[arm], Python) logging started Wed Oct  8 15:33:03 2025


Gurobi 12.0.1 (mac64[arm], Python) logging started Wed Oct  8 15:33:39 2025


Gurobi 12.0.1 (mac64[arm], Python) logging started Wed Oct  8 15:34:00 2025


Gurobi 12.0.1 (mac64[arm], Python) logging started Wed Oct  8 15:34:16 2025


Gurobi 12.0.1 (mac64[arm], Python) logging started Wed Oct  8 15:35:47 2025


Gurobi 12.0.1 (mac64[arm], Python) logging started Wed Oct  8 15:35:58 2025


Gurobi 12.0.1 (mac64[arm], Python) logging started Wed Oct  8 15:38:34 2025


Gurobi 12.0.1 (mac64[arm], Python) logging started Wed Oct  8 15:39:53 2025


Gurobi 12.0.1 (mac64[arm], Python) logging started Wed Oct  8 15:58:19 2025


Gurobi 12.0.1 (mac64[arm], Python) logging started Wed Oct  8 15:58:28 2025


Gurobi 12.0.1 (mac64[arm], Python) logging started Wed Oct  8 15:58:40 2025


Gurobi 12.0.1 (mac64[arm], Python) logging started Wed Oct  8 15:59:32 2025


Gurobi 12.0.1 (mac64[arm], Python) logging started Wed Oct  8 16:00:45 2025


Gurobi 12.0.1 (mac64[arm], Python) logging started Wed Oct  8 16:02:43 2025


Gurobi 12.0.1 (mac64[arm], Python) logging started Wed Oct  8 16:09:18 2025


Gurobi 12.0.1 (mac64[arm], Python) logging started Wed Oct  8 16:09:36 2025


Gurobi 12.0.1 (mac64[arm], Python) logging started Wed Oct  8 16:10:48 2025


Gurobi 12.0.1 (mac64[arm], Python) logging started Wed Oct  8 16:15:07 2025


Gurobi 12.0.1 (mac64[arm], Python) logging started Wed Oct  8 16:15:22 2025


Gurobi 12.0.1 (mac64[arm], Python) logging started Wed Oct  8 16:17:58 2025


Gurobi 12.0.1 (mac64[arm], Python) logging started Wed Oct  8 16:20:21 2025


Gurobi 12.0.1 (mac64[arm], Python) logging started Wed Oct  8 16:35:24 2025


Gurobi 12.0.1 (mac64[arm], Python) logging started Wed Oct  8 16:36:40 2025


Gurobi 12.0.1 (mac64[arm], Python) logging started Wed Oct  8 16:44:41 2025


Gurobi 12.0.1 (mac64[arm], Python) logging started Wed Oct  8 16:44:56 2025

